2
4
20
1 1.3 1.55 1.75 2.1
25 14 8 10 27 12 32 23 9 12 49 35 45 45 49 38 16 20 29 46 33 26 9 20 13 31 21 27 42 40 24 5 23 7 29 44 36 34 48 28 20 7 23 33 20 29 29 20 26 33 48 46 34 36 6 35 20 20 26 16 43 21 35 7 5 35 44 24 41 10 43 32 25 25 27 6 44 13 16 27 